\ Model dominator-partition-fixed-k
\ LP format - for model browsing. Use MPS format to capture full model detail.
Minimize
  0.7857203028720032 x[1,1] - 0.3360403893976456 x[1,2]
   + 0.6424582461156636 x[1,3] - 0.9166067485495002 x[1,4]
   - 0.7846866401280641 x[2,1] + 0.1901041284124805 x[2,2]
   + 0.0596347243856432 x[2,3] - 0.1623851428866914 x[2,4]
   - 0.3291843014533415 x[3,1] + 0.2450388643921804 x[3,2]
   - 0.1237171477822518 x[3,3] + 0.4717642126973804 x[3,4]
   + 0.0360728239985375 x[4,1] + 0.1577172004523142 x[4,2]
   + 0.2907101917911876 x[4,3] + 0.9804485427468328 x[4,4]
   + 0.6397163938436827 d[1,1] - 0.1735981303676384 d[1,2]
   + 0.7525353104132548 d[1,3] + 0.6475188651410426 d[1,4]
   - 0.8910509843552907 d[2,1] + 0.4372744731283886 d[2,2]
   + 0.6043411248489508 d[2,3] + 0.4728132876228779 d[2,4]
   + 0.4182635015623346 d[3,1] + 0.0818737086050563 d[3,2]
   - 0.7503516512387804 d[3,3] + 0.9152945909393368 d[3,4]
   - 0.1934874025301603 d[4,1] - 0.5660976793528798 d[4,2]
   + 0.4345516929066389 d[4,3] + 0.9884148768438752 d[4,4]
Subject To
 Assign_1: x[1,1] + x[1,2] + x[1,3] + x[1,4] = 1
 Assign_2: x[2,1] + x[2,2] + x[2,3] + x[2,4] = 1
 Assign_3: x[3,1] + x[3,2] + x[3,3] + x[3,4] = 1
 Assign_4: x[4,1] + x[4,2] + x[4,3] + x[4,4] = 1
 NonEmptyBlock_1: x[1,1] + x[2,1] + x[3,1] + x[4,1] >= 1
 NonEmptyBlock_2: x[1,2] + x[2,2] + x[3,2] + x[4,2] >= 1
 NonEmptyBlock_3: x[1,3] + x[2,3] + x[3,3] + x[4,3] >= 1
 NonEmptyBlock_4: x[1,4] + x[2,4] + x[3,4] + x[4,4] >= 1
 Dominate_1_3_1: x[3,1] + d[1,1] <= 1
 Dominate_1_3_2: x[3,2] + d[1,2] <= 1
 Dominate_1_3_3: x[3,3] + d[1,3] <= 1
 Dominate_1_3_4: x[3,4] + d[1,4] <= 1
 Dominate_1_4_1: x[4,1] + d[1,1] <= 1
 Dominate_1_4_2: x[4,2] + d[1,2] <= 1
 Dominate_1_4_3: x[4,3] + d[1,3] <= 1
 Dominate_1_4_4: x[4,4] + d[1,4] <= 1
 Dominate_2_4_1: x[4,1] + d[2,1] <= 1
 Dominate_2_4_2: x[4,2] + d[2,2] <= 1
 Dominate_2_4_3: x[4,3] + d[2,3] <= 1
 Dominate_2_4_4: x[4,4] + d[2,4] <= 1
 Dominate_3_1_1: x[1,1] + d[3,1] <= 1
 Dominate_3_1_2: x[1,2] + d[3,2] <= 1
 Dominate_3_1_3: x[1,3] + d[3,3] <= 1
 Dominate_3_1_4: x[1,4] + d[3,4] <= 1
 Dominate_4_1_1: x[1,1] + d[4,1] <= 1
 Dominate_4_1_2: x[1,2] + d[4,2] <= 1
 Dominate_4_1_3: x[1,3] + d[4,3] <= 1
 Dominate_4_1_4: x[1,4] + d[4,4] <= 1
 Dominate_4_2_1: x[2,1] + d[4,1] <= 1
 Dominate_4_2_2: x[2,2] + d[4,2] <= 1
 Dominate_4_2_3: x[2,3] + d[4,3] <= 1
 Dominate_4_2_4: x[2,4] + d[4,4] <= 1
 DominateBlock_1: d[1,1] + d[1,2] + d[1,3] + d[1,4] = 1
 DominateBlock_2: d[2,1] + d[2,2] + d[2,3] + d[2,4] = 1
 DominateBlock_3: d[3,1] + d[3,2] + d[3,3] + d[3,4] = 1
 DominateBlock_4: d[4,1] + d[4,2] + d[4,3] + d[4,4] = 1
 Order_1: x[1,1] - x[1,2] + x[2,1] - x[2,2] + x[3,1] - x[3,2] + x[4,1]
   - x[4,2] >= 0
 Order_2: x[1,2] - x[1,3] + x[2,2] - x[2,3] + x[3,2] - x[3,3] + x[4,2]
   - x[4,3] >= 0
 Order_3: x[1,3] - x[1,4] + x[2,3] - x[2,4] + x[3,3] - x[3,4] + x[4,3]
   - x[4,4] >= 0
 Valid_1: x[1,1] + x[2,1] + x[3,1] + x[4,1] >= 1
 Valid_2: x[1,4] + x[2,4] + x[3,4] + x[4,4] <= 1
 Valid_Dominate_1_1: - x[1,1] - x[2,1] + d[1,1] >= -1
 Valid_Dominate_1_2: - x[1,2] - x[2,2] + d[1,2] >= -1
 Valid_Dominate_1_3: - x[1,3] - x[2,3] + d[1,3] >= -1
 Valid_Dominate_1_4: - x[1,4] - x[2,4] + d[1,4] >= -1
 Valid_Dominate_2_1: - x[1,1] - x[2,1] - x[3,1] + d[2,1] >= -2
 Valid_Dominate_2_2: - x[1,2] - x[2,2] - x[3,2] + d[2,2] >= -2
 Valid_Dominate_2_3: - x[1,3] - x[2,3] - x[3,3] + d[2,3] >= -2
 Valid_Dominate_2_4: - x[1,4] - x[2,4] - x[3,4] + d[2,4] >= -2
 Valid_Dominate_3_1: - x[2,1] - x[3,1] - x[4,1] + d[3,1] >= -2
 Valid_Dominate_3_2: - x[2,2] - x[3,2] - x[4,2] + d[3,2] >= -2
 Valid_Dominate_3_3: - x[2,3] - x[3,3] - x[4,3] + d[3,3] >= -2
 Valid_Dominate_3_4: - x[2,4] - x[3,4] - x[4,4] + d[3,4] >= -2
 Valid_Dominate_4_1: - x[3,1] - x[4,1] + d[4,1] >= -1
 Valid_Dominate_4_2: - x[3,2] - x[4,2] + d[4,2] >= -1
 Valid_Dominate_4_3: - x[3,3] - x[4,3] + d[4,3] >= -1
 Valid_Dominate_4_4: - x[3,4] - x[4,4] + d[4,4] >= -1
Bounds
 x[1,1] <= 1
 x[1,2] <= 1
 x[1,3] <= 1
 x[1,4] <= 1
 x[2,1] <= 1
 x[2,2] <= 1
 x[2,3] <= 1
 x[2,4] <= 1
 x[3,1] <= 1
 x[3,2] <= 1
 x[3,3] <= 1
 x[3,4] <= 1
 x[4,1] <= 1
 x[4,2] <= 1
 x[4,3] <= 1
 x[4,4] <= 1
 d[1,1] <= 1
 d[1,2] <= 1
 d[1,3] <= 1
 d[1,4] <= 1
 d[2,1] <= 1
 d[2,2] <= 1
 d[2,3] <= 1
 d[2,4] <= 1
 d[3,1] <= 1
 d[3,2] <= 1
 d[3,3] <= 1
 d[3,4] <= 1
 d[4,1] <= 1
 d[4,2] <= 1
 d[4,3] <= 1
 d[4,4] <= 1
End
